11
-1 36 55 67 55 74 31 52 50 50 41
24 -1 30 7 91 7 37 57 87 53 83
45 9 -1 58 21 88 22 46 6 30 13
68 91 62 -1 10 59 24 37 48 83 95
41 2 50 91 -1 74 20 96 21 48 99
68 84 81 34 53 -1 18 38 88 27 67
28 93 48 83 7 21 -1 17 13 14 9
16 35 51 49 19 56 98 -1 24 8 44
9 89 2 95 85 93 43 23 -1 14 3
48 58 18 80 96 98 81 89 98 -1 57
72 22 38 92 38 79 90 57 58 91 -1